DATASET = "thpack1";
INSTANCE = "078";

WIDTH = 233;
HEIGHT = 220;
LENGTH = 587;

NO_OF_SHAPES = 3;
size = [|
  105,68,42 |
  75,37,24 |
  79,73,26 |
|];

verticality = [|
  0,1,1 |
  0,1,1 |
  0,0,1 |
|];

box_count = [
  61,
  53,
  55,
];
